assets/ampl/Ex38[Juice].dat
data;

set I:= 1	2;
set J:=	1	2;

param L:= 400;						

param M:= 
1	200
2	200
;						
 
param D :=
1	250
2	170
;

param m:	1		2 :=
1			0.7		0.75
2			0.8		0.9
;


param l: 	1		2 :=
1			0.75	0.75
2			1.2		1
;

param C:	1		2 :=
1			16.5	13.5
2			18		14.5
;

param d:	1		2=
1			0		85
2			125		0	
;


